32
0
0
40
10
0
13
11
23
0
0
25
42
29
0
29
29
0
60
20
18
22
9
43
0
0
35
0
17
16
0
0
17
36
8
9
9
6
15
21
38
0
0
0
30
0
12
21
58
12
70
0
18
17
13
15
12
6
63
8
15
20
0
12
0
0
9
33
0
11
24
0
0
18
40
0
0
20
11
35
29
21
15
79
50
29
9
9
0
0
34
22
19
0
11
73
0
15
13
22
